# 66519
param k := 6;
param n := 60;
param s := 1;
set E :=  (0,16) (0,20) (0,23) (0,54) (1,52) (2,36) (3,37) (3,45) (4,23) (4,49) (5,26) (5,58) (6,56) (7,13) (7,15) (8,57) (9,41) (10,18) (10,50) (10,54) (11,36) (12,22) (12,29) (12,50) (14,29) (15,30) (16,27) (17,27) (17,55) (18,31) (19,36) (20,48) (21,54) (23,28) (23,37) (23,40) (24,38) (24,51) (25,54) (27,32) (28,36) (28,38) (28,46) (28,59) (29,55) (30,39) (30,44) (30,53) (30,58) (31,33) (32,39) (33,41) (33,59) (34,39) (35,38) (37,49) (38,42) (39,57) (40,57) (41,43) (47,51) (52,59) (54,56);